etc/upTests/__reps/ExplicitVarSizeWithMarker/nested2/0002.eprime.solution
language ESSENCE' 1.0
$ minion Nodes: 17
$ minion TotalTime: 0.00252
$ Savile Row TotalTime: 1.136
letting s_SetExplicitVarSize_tuple1 be [true, false, false, false, false;int(1..5)]
letting s_SetExplicitVarSize_tuple2_SetExplicitVarSizeWithDefault be [[1, 2, 3;int(1..3)], 
[1, 2, 3;int(1..3)], 
[1, 2, 3;int(1..3)], 
[1, 2, 3;int(1..3)], 
[1, 2, 3;int(1..3)];int(1..5)]
